unsat
(:cnf-encoding-aux-vars 35
 :elim-unconstrained    3
 :max-memory            18.72
 :memory                18.53
 :nlsat-arith-var       6
 :nlsat-atoms           65
 :nlsat-bool-var        41
 :nlsat-clauses         190
 :nlsat-conflicts       3
 :nlsat-decisions       70
 :nlsat-propagations    32
 :num-allocs            88467
 :rlimit-count          16843
 :solve-eqs-elim-vars   27
 :solve-eqs-steps       50
 :time                  0.01
 :total-time            0.02)
